NAME : pr0.tsp
COMMENT : 10-city problem
TYPE : TSP 
DIMENSION : 10
EDGE_WEIGHT_TYPE : EUC_2D
NODE_COORD_SECTION 
1  9.913300e+04 5.878000e+03 
2  7.404000e+04 3.624900e+04 
3  3.483600e+04 2.403200e+04 
4  6.690800e+04 7.121600e+04 
5  7.243200e+04 9.199200e+04 
6  1.040400e+04 1.462600e+04 
7  9.487500e+04 3.596500e+04 
8  4.007200e+04 7.145900e+04 
9  9.888400e+04 6.181100e+04 
10 2.910000e+03 6.884100e+04 
EOF 
